21
2 0 1
2 1 1
3 1 1
4 2 1
5 1 1
5 2 1
5 3 1
5 4 1
6 0 1
6 1 1
6 5 1
7 1 1
7 3 1
7 6 1
8 0 1
8 1 1
8 3 1
8 6 1
8 7 1
9 0 1
9 1 1
9 3 1
9 5 1
9 6 1
9 8 1
10 1 1
10 4 1
10 5 1
11 1 1
11 2 1
11 4 1
11 8 1
12 6 1
12 7 1
12 9 1
12 10 1
12 11 1
13 1 1
13 2 1
13 5 1
13 6 1
13 8 1
13 9 1
13 10 1
13 11 1
14 0 1
14 1 1
14 2 1
14 3 1
14 4 1
14 5 1
14 6 1
14 8 1
14 10 1
14 12 1
15 2 1
15 4 1
15 5 1
15 7 1
15 8 1
15 12 1
15 13 1
15 14 1
16 2 1
16 3 1
16 4 1
16 7 1
16 10 1
16 13 1
16 14 1
16 15 1
17 0 1
17 1 1
17 3 1
17 6 1
17 7 1
17 8 1
17 10 1
17 11 1
17 12 1
17 13 1
17 14 1
17 15 1
18 0 1
18 2 1
18 7 1
18 9 1
18 11 1
18 16 1
19 0 1
19 2 1
19 7 1
19 8 1
19 14 1
19 17 1
20 1 1
20 2 1
20 7 1
20 13 1
20 14 1
20 15 1
20 18 1
